c "421909.clq"
p edge 203 2992
e 1 17
e 1 18
e 1 19
e 1 20
e 1 21
e 1 22
e 1 23
e 1 24
e 1 26
e 1 27
e 1 28
e 1 30
e 1 39
e 1 41
e 1 43
e 1 46
e 1 51
e 1 52
e 1 53
e 1 54
e 1 57
e 1 63
e 1 72
e 1 73
e 1 74
e 1 78
e 1 90
e 1 94
e 1 105
e 1 108
e 1 113
e 1 120
e 1 127
e 1 129
e 1 136
e 1 146
e 1 150
e 1 156
e 1 157
e 1 160
e 1 163
e 1 164
e 1 182
e 1 184
e 1 185
e 1 188
e 1 198
e 1 203
e 2 17
e 2 18
e 2 19
e 2 20
e 2 21
e 2 22
e 2 27
e 2 29
e 2 31
e 2 35
e 2 46
e 2 53
e 2 57
e 2 67
e 2 68
e 2 72
e 2 83
e 2 86
e 2 95
e 2 97
e 2 104
e 2 105
e 2 118
e 2 129
e 2 131
e 2 137
e 2 144
e 2 145
e 2 150
e 2 153
e 2 158
e 2 160
e 2 165
e 2 173
e 2 182
e 2 184
e 2 197
e 3 17
e 3 18
e 3 19
e 3 20
e 3 21
e 3 22
e 3 24
e 3 25
e 3 26
e 3 27
e 3 28
e 3 29
e 3 30
e 3 31
e 3 37
e 3 38
e 3 40
e 3 54
e 3 56
e 3 58
e 3 64
e 3 65
e 3 69
e 3 79
e 3 80
e 3 81
e 3 83
e 3 87
e 3 89
e 3 92
e 3 97
e 3 98
e 3 110
e 3 111
e 3 126
e 3 127
e 3 139
e 3 142
e 3 161
e 3 168
e 3 169
e 3 173
e 3 181
e 3 188
e 3 199
e 3 203
e 4 17
e 4 18
e 4 19
e 4 21
e 4 22
e 4 23
e 4 24
e 4 25
e 4 26
e 4 27
e 4 29
e 4 30
e 4 34
e 4 35
e 4 36
e 4 37
e 4 39
e 4 50
e 4 57
e 4 61
e 4 64
e 4 70
e 4 72
e 4 74
e 4 79
e 4 96
e 4 97
e 4 102
e 4 115
e 4 118
e 4 130
e 4 132
e 4 133
e 4 138
e 4 142
e 4 144
e 4 152
e 4 162
e 4 173
e 4 174
e 5 17
e 5 20
e 5 22
e 5 23
e 5 25
e 5 27
e 5 30
e 5 33
e 5 39
e 5 40
e 5 42
e 5 44
e 5 53
e 5 55
e 5 58
e 5 63
e 5 68
e 5 69
e 5 70
e 5 71
e 5 82
e 5 84
e 5 106
e 5 123
e 5 133
e 5 141
e 5 146
e 5 161
e 5 162
e 5 183
e 6 17
e 6 18
e 6 19
e 6 22
e 6 23
e 6 25
e 6 26
e 6 27
e 6 28
e 6 30
e 6 31
e 6 33
e 6 34
e 6 36
e 6 41
e 6 42
e 6 49
e 6 51
e 6 54
e 6 55
e 6 56
e 6 57
e 6 67
e 6 70
e 6 71
e 6 74
e 6 75
e 6 76
e 6 77
e 6 78
e 6 86
e 6 89
e 6 91
e 6 97
e 6 101
e 6 106
e 6 109
e 6 115
e 6 121
e 6 127
e 6 131
e 6 136
e 6 149
e 6 159
e 6 166
e 6 170
e 6 181
e 6 185
e 6 198
e 6 201
e 7 17
e 7 18
e 7 19
e 7 20
e 7 23
e 7 24
e 7 25
e 7 26
e 7 29
e 7 33
e 7 34
e 7 35
e 7 36
e 7 40
e 7 42
e 7 43
e 7 45
e 7 50
e 7 59
e 7 60
e 7 68
e 7 72
e 7 98
e 7 121
e 7 154
e 7 168
e 7 178
e 7 184
e 7 185
e 7 190
e 8 17
e 8 18
e 8 19
e 8 20
e 8 21
e 8 22
e 8 23
e 8 24
e 8 25
e 8 28
e 8 35
e 8 36
e 8 41
e 8 42
e 8 48
e 8 49
e 8 52
e 8 61
e 8 65
e 8 76
e 8 81
e 8 94
e 8 106
e 8 119
e 8 139
e 8 147
e 8 163
e 8 164
e 8 165
e 8 175
e 8 186
e 8 198
e 9 17
e 9 18
e 9 19
e 9 20
e 9 21
e 9 23
e 9 24
e 9 25
e 9 31
e 9 32
e 9 33
e 9 37
e 9 42
e 9 43
e 9 53
e 9 55
e 9 71
e 9 76
e 9 82
e 9 85
e 9 87
e 9 99
e 9 109
e 9 115
e 9 116
e 9 137
e 9 144
e 9 151
e 9 156
e 9 160
e 9 163
e 9 164
e 10 17
e 10 18
e 10 19
e 10 20
e 10 21
e 10 22
e 10 27
e 10 29
e 10 30
e 10 31
e 10 32
e 10 33
e 10 35
e 10 46
e 10 60
e 10 63
e 10 67
e 10 69
e 10 73
e 10 101
e 10 112
e 10 119
e 10 120
e 10 137
e 10 151
e 10 153
e 10 154
e 10 157
e 10 164
e 10 167
e 10 181
e 11 17
e 11 18
e 11 19
e 11 20
e 11 21
e 11 22
e 11 24
e 11 25
e 11 28
e 11 32
e 11 34
e 11 39
e 11 40
e 11 42
e 11 43
e 11 45
e 11 46
e 11 47
e 11 56
e 11 67
e 11 69
e 11 87
e 11 92
e 11 98
e 11 111
e 11 112
e 11 114
e 11 124
e 11 128
e 11 135
e 11 150
e 11 152
e 11 154
e 11 158
e 11 169
e 11 170
e 11 172
e 11 176
e 11 190
e 11 203
e 12 17
e 12 18
e 12 19
e 12 20
e 12 21
e 12 22
e 12 23
e 12 24
e 12 25
e 12 26
e 12 28
e 12 29
e 12 34
e 12 40
e 12 45
e 12 46
e 12 52
e 12 56
e 12 62
e 12 66
e 12 68
e 12 69
e 12 70
e 12 87
e 12 89
e 12 97
e 12 108
e 12 109
e 12 110
e 12 116
e 12 120
e 12 122
e 12 126
e 12 127
e 12 129
e 12 131
e 12 133
e 12 134
e 12 137
e 12 142
e 12 151
e 12 167
e 12 174
e 12 178
e 12 195
e 12 202
e 13 17
e 13 18
e 13 19
e 13 20
e 13 21
e 13 36
e 13 74
e 13 81
e 13 84
e 13 162
e 13 194
e 14 17
e 14 18
e 14 20
e 14 21
e 14 22
e 14 26
e 14 27
e 14 36
e 14 37
e 14 40
e 14 45
e 14 49
e 14 50
e 14 64
e 14 66
e 14 67
e 14 79
e 14 80
e 14 85
e 14 92
e 14 115
e 14 125
e 14 148
e 14 166
e 14 175
e 14 177
e 14 189
e 14 200
e 15 17
e 15 18
e 15 19
e 15 23
e 15 31
e 15 38
e 15 44
e 15 48
e 15 58
e 15 60
e 15 69
e 15 71
e 15 80
e 15 88
e 15 98
e 15 111
e 15 120
e 15 134
e 15 140
e 15 163
e 15 202
e 16 17
e 16 18
e 16 19
e 16 20
e 16 21
e 16 22
e 16 23
e 16 24
e 16 26
e 16 27
e 16 29
e 16 33
e 16 37
e 16 38
e 16 41
e 16 43
e 16 48
e 16 49
e 16 50
e 16 51
e 16 59
e 16 63
e 16 67
e 16 79
e 16 86
e 16 103
e 16 104
e 16 113
e 16 119
e 16 125
e 16 126
e 16 129
e 16 133
e 16 152
e 16 167
e 16 173
e 16 176
e 16 182
e 16 196
e 17 18
e 17 19
e 17 20
e 17 21
e 17 22
e 17 23
e 17 24
e 17 25
e 17 26
e 17 27
e 17 28
e 17 29
e 17 30
e 17 31
e 17 32
e 17 33
e 17 36
e 17 37
e 17 38
e 17 39
e 17 41
e 17 43
e 17 45
e 17 46
e 17 47
e 17 48
e 17 49
e 17 53
e 17 54
e 17 55
e 17 56
e 17 57
e 17 59
e 17 62
e 17 65
e 17 67
e 17 72
e 17 73
e 17 77
e 17 78
e 17 79
e 17 80
e 17 83
e 17 87
e 17 88
e 17 91
e 17 93
e 17 96
e 17 99
e 17 100
e 17 102
e 17 103
e 17 109
e 17 112
e 17 113
e 17 114
e 17 115
e 17 116
e 17 117
e 17 118
e 17 125
e 17 127
e 17 131
e 17 133
e 17 134
e 17 141
e 17 142
e 17 143
e 17 151
e 17 152
e 17 154
e 17 159
e 17 165
e 17 169
e 17 175
e 17 176
e 17 178
e 17 179
e 17 192
e 17 196
e 17 203
e 18 19
e 18 20
e 18 21
e 18 22
e 18 23
e 18 24
e 18 25
e 18 26
e 18 27
e 18 28
e 18 32
e 18 33
e 18 34
e 18 36
e 18 37
e 18 38
e 18 39
e 18 40
e 18 41
e 18 42
e 18 43
e 18 47
e 18 49
e 18 50
e 18 51
e 18 54
e 18 56
e 18 57
e 18 58
e 18 59
e 18 62
e 18 64
e 18 66
e 18 67
e 18 70
e 18 74
e 18 80
e 18 83
e 18 86
e 18 89
e 18 90
e 18 95
e 18 96
e 18 97
e 18 98
e 18 104
e 18 106
e 18 110
e 18 114
e 18 116
e 18 119
e 18 131
e 18 140
e 18 142
e 18 149
e 18 155
e 18 156
e 18 159
e 18 162
e 18 170
e 18 175
e 18 177
e 18 197
e 18 203
e 19 20
e 19 21
e 19 22
e 19 23
e 19 24
e 19 25
e 19 26
e 19 27
e 19 28
e 19 29
e 19 32
e 19 33
e 19 34
e 19 35
e 19 38
e 19 41
e 19 44
e 19 47
e 19 50
e 19 52
e 19 54
e 19 61
e 19 62
e 19 63
e 19 65
e 19 66
e 19 67
e 19 71
e 19 73
e 19 74
e 19 75
e 19 81
e 19 84
e 19 85
e 19 98
e 19 102
e 19 103
e 19 107
e 19 110
e 19 112
e 19 113
e 19 115
e 19 120
e 19 124
e 19 140
e 19 141
e 19 142
e 19 144
e 19 155
e 19 157
e 19 160
e 19 174
e 19 175
e 19 180
e 19 183
e 19 188
e 19 193
e 19 196
e 19 198
e 20 21
e 20 22
e 20 23
e 20 24
e 20 25
e 20 26
e 20 27
e 20 28
e 20 29
e 20 30
e 20 31
e 20 33
e 20 39
e 20 41
e 20 42
e 20 44
e 20 45
e 20 49
e 20 50
e 20 51
e 20 52
e 20 55
e 20 58
e 20 60
e 20 61
e 20 62
e 20 63
e 20 70
e 20 72
e 20 73
e 20 75
e 20 76
e 20 84
e 20 85
e 20 88
e 20 89
e 20 96
e 20 99
e 20 100
e 20 105
e 20 108
e 20 114
e 20 116
e 20 120
e 20 124
e 20 125
e 20 127
e 20 128
e 20 129
e 20 135
e 20 139
e 20 140
e 20 143
e 20 148
e 20 149
e 20 156
e 20 167
e 20 168
e 20 170
e 20 181
e 20 184
e 20 185
e 20 187
e 20 192
e 20 196
e 20 200
e 20 202
e 21 23
e 21 24
e 21 26
e 21 28
e 21 30
e 21 31
e 21 32
e 21 33
e 21 35
e 21 36
e 21 37
e 21 38
e 21 39
e 21 43
e 21 44
e 21 45
e 21 46
e 21 47
e 21 50
e 21 54
e 21 58
e 21 60
e 21 74
e 21 79
e 21 80
e 21 83
e 21 85
e 21 88
e 21 97
e 21 98
e 21 99
e 21 104
e 21 105
e 21 107
e 21 110
e 21 112
e 21 114
e 21 118
e 21 122
e 21 125
e 21 130
e 21 132
e 21 133
e 21 137
e 21 138
e 21 141
e 21 148
e 21 159
e 21 163
e 21 169
e 21 172
e 21 173
e 21 195
e 21 196
e 22 23
e 22 24
e 22 25
e 22 26
e 22 27
e 22 28
e 22 29
e 22 30
e 22 31
e 22 32
e 22 33
e 22 34
e 22 35
e 22 36
e 22 37
e 22 38
e 22 41
e 22 42
e 22 43
e 22 44
e 22 46
e 22 49
e 22 56
e 22 57
e 22 58
e 22 60
e 22 62
e 22 67
e 22 68
e 22 69
e 22 73
e 22 75
e 22 76
e 22 82
e 22 83
e 22 84
e 22 87
e 22 88
e 22 93
e 22 94
e 22 98
e 22 101
e 22 105
e 22 107
e 22 121
e 22 123
e 22 127
e 22 132
e 22 135
e 22 136
e 22 142
e 22 144
e 22 145
e 22 157
e 22 159
e 22 167
e 22 169
e 22 171
e 22 185
e 22 188
e 23 24
e 23 25
e 23 28
e 23 29
e 23 30
e 23 32
e 23 33
e 23 34
e 23 36
e 23 37
e 23 38
e 23 42
e 23 44
e 23 45
e 23 46
e 23 48
e 23 50
e 23 51
e 23 52
e 23 53
e 23 54
e 23 56
e 23 57
e 23 59
e 23 60
e 23 62
e 23 65
e 23 68
e 23 72
e 23 82
e 23 83
e 23 87
e 23 90
e 23 91
e 23 92
e 23 95
e 23 97
e 23 99
e 23 103
e 23 105
e 23 106
e 23 107
e 23 108
e 23 109
e 23 112
e 23 115
e 23 117
e 23 118
e 23 121
e 23 122
e 23 130
e 23 131
e 23 132
e 23 133
e 23 136
e 23 138
e 23 139
e 23 140
e 23 144
e 23 147
e 23 148
e 23 156
e 23 158
e 23 161
e 23 163
e 23 168
e 23 169
e 23 173
e 23 175
e 23 178
e 23 183
e 23 192
e 24 25
e 24 26
e 24 27
e 24 28
e 24 29
e 24 30
e 24 31
e 24 32
e 24 34
e 24 35
e 24 38
e 24 39
e 24 40
e 24 41
e 24 42
e 24 44
e 24 46
e 24 47
e 24 50
e 24 51
e 24 53
e 24 54
e 24 55
e 24 56
e 24 57
e 24 59
e 24 62
e 24 66
e 24 67
e 24 68
e 24 71
e 24 73
e 24 86
e 24 89
e 24 92
e 24 97
e 24 102
e 24 106
e 24 107
e 24 110
e 24 117
e 24 122
e 24 124
e 24 126
e 24 134
e 24 136
e 24 141
e 24 142
e 24 147
e 24 148
e 24 150
e 24 153
e 24 159
e 24 162
e 24 169
e 24 171
e 24 180
e 24 190
e 24 195
e 24 196
e 24 199
e 24 202
e 25 26
e 25 28
e 25 30
e 25 31
e 25 32
e 25 34
e 25 35
e 25 36
e 25 38
e 25 40
e 25 42
e 25 44
e 25 47
e 25 48
e 25 49
e 25 53
e 25 55
e 25 65
e 25 68
e 25 74
e 25 79
e 25 87
e 25 88
e 25 93
e 25 104
e 25 111
e 25 113
e 25 114
e 25 128
e 25 138
e 25 144
e 25 147
e 25 152
e 25 157
e 25 159
e 25 160
e 25 161
e 25 164
e 25 166
e 25 168
e 25 173
e 25 178
e 25 182
e 25 185
e 25 190
e 25 191
e 25 192
e 25 196
e 25 202
e 26 27
e 26 29
e 26 30
e 26 31
e 26 32
e 26 34
e 26 37
e 26 38
e 26 39
e 26 43
e 26 44
e 26 47
e 26 48
e 26 50
e 26 53
e 26 59
e 26 65
e 26 68
e 26 69
e 26 70
e 26 78
e 26 85
e 26 87
e 26 90
e 26 91
e 26 95
e 26 96
e 26 106
e 26 110
e 26 124
e 26 132
e 26 144
e 26 145
e 26 150
e 26 154
e 26 172
e 26 176
e 26 178
e 26 188
e 26 189
e 26 198
e 26 203
e 27 28
e 27 29
e 27 30
e 27 32
e 27 33
e 27 35
e 27 39
e 27 40
e 27 41
e 27 45
e 27 46
e 27 52
e 27 56
e 27 58
e 27 66
e 27 72
e 27 78
e 27 81
e 27 88
e 27 91
e 27 92
e 27 98
e 27 101
e 27 103
e 27 104
e 27 108
e 27 111
e 27 113
e 27 115
e 27 116
e 27 117
e 27 122
e 27 128
e 27 132
e 27 134
e 27 137
e 27 149
e 27 156
e 27 163
e 27 167
e 27 171
e 27 174
e 27 177
e 27 180
e 27 182
e 27 183
e 27 188
e 27 189
e 27 194
e 27 195
e 27 198
e 28 29
e 28 30
e 28 31
e 28 34
e 28 35
e 28 38
e 28 39
e 28 42
e 28 48
e 28 50
e 28 52
e 28 53
e 28 56
e 28 57
e 28 62
e 28 63
e 28 66
e 28 71
e 28 74
e 28 76
e 28 80
e 28 81
e 28 83
e 28 84
e 28 87
e 28 90
e 28 93
e 28 94
e 28 96
e 28 102
e 28 104
e 28 114
e 28 122
e 28 136
e 28 139
e 28 145
e 28 146
e 28 152
e 28 155
e 28 164
e 28 173
e 28 177
e 28 190
e 28 193
e 28 200
e 29 31
e 29 32
e 29 33
e 29 35
e 29 36
e 29 43
e 29 46
e 29 47
e 29 48
e 29 50
e 29 54
e 29 55
e 29 58
e 29 59
e 29 60
e 29 63
e 29 64
e 29 65
e 29 66
e 29 68
e 29 71
e 29 72
e 29 75
e 29 77
e 29 78
e 29 82
e 29 90
e 29 95
e 29 99
e 29 100
e 29 101
e 29 103
e 29 104
e 29 109
e 29 112
e 29 114
e 29 116
e 29 118
e 29 119
e 29 123
e 29 132
e 29 139
e 29 143
e 29 144
e 29 150
e 29 155
e 29 162
e 29 163
e 29 170
e 29 173
e 29 179
e 29 188
e 29 195
e 29 197
e 30 31
e 30 32
e 30 34
e 30 35
e 30 36
e 30 37
e 30 40
e 30 41
e 30 44
e 30 49
e 30 53
e 30 55
e 30 56
e 30 58
e 30 61
e 30 63
e 30 64
e 30 75
e 30 79
e 30 84
e 30 85
e 30 89
e 30 96
e 30 97
e 30 102
e 30 110
e 30 117
e 30 119
e 30 122
e 30 123
e 30 139
e 30 144
e 30 149
e 30 156
e 30 166
e 30 176
e 30 179
e 30 182
e 30 186
e 30 187
e 31 32
e 31 34
e 31 35
e 31 37
e 31 38
e 31 42
e 31 43
e 31 45
e 31 48
e 31 49
e 31 51
e 31 56
e 31 59
e 31 60
e 31 65
e 31 69
e 31 70
e 31 73
e 31 76
e 31 79
e 31 83
e 31 86
e 31 91
e 31 92
e 31 100
e 31 102
e 31 104
e 31 105
e 31 117
e 31 123
e 31 124
e 31 126
e 31 128
e 31 129
e 31 141
e 31 145
e 31 150
e 31 156
e 31 160
e 31 165
e 31 166
e 31 169
e 31 175
e 31 190
e 31 194
e 32 33
e 32 36
e 32 37
e 32 38
e 32 40
e 32 41
e 32 43
e 32 47
e 32 48
e 32 50
e 32 54
e 32 56
e 32 63
e 32 66
e 32 74
e 32 83
e 32 90
e 32 94
e 32 104
e 32 109
e 32 114
e 32 117
e 32 130
e 32 133
e 32 150
e 32 157
e 32 159
e 32 166
e 32 176
e 32 182
e 32 184
e 32 186
e 32 200
e 33 34
e 33 35
e 33 36
e 33 39
e 33 40
e 33 41
e 33 45
e 33 46
e 33 47
e 33 51
e 33 54
e 33 55
e 33 59
e 33 62
e 33 73
e 33 75
e 33 80
e 33 82
e 33 83
e 33 84
e 33 85
e 33 95
e 33 96
e 33 99
e 33 107
e 33 109
e 33 110
e 33 122
e 33 125
e 33 127
e 33 133
e 33 140
e 33 145
e 33 151
e 33 159
e 33 168
e 33 171
e 33 172
e 33 176
e 33 177
e 33 182
e 33 187
e 33 191
e 33 197
e 33 198
e 34 37
e 34 39
e 34 40
e 34 41
e 34 44
e 34 45
e 34 49
e 34 52
e 34 54
e 34 61
e 34 63
e 34 64
e 34 73
e 34 75
e 34 77
e 34 84
e 34 85
e 34 101
e 34 108
e 34 116
e 34 120
e 34 121
e 34 126
e 34 137
e 34 140
e 34 141
e 34 143
e 34 149
e 34 152
e 34 157
e 34 161
e 34 171
e 34 172
e 34 187
e 34 199
e 34 200
e 35 39
e 35 42
e 35 44
e 35 46
e 35 47
e 35 48
e 35 51
e 35 53
e 35 58
e 35 63
e 35 65
e 35 69
e 35 70
e 35 72
e 35 75
e 35 77
e 35 84
e 35 85
e 35 87
e 35 92
e 35 94
e 35 97
e 35 102
e 35 103
e 35 110
e 35 113
e 35 118
e 35 119
e 35 121
e 35 124
e 35 126
e 35 127
e 35 147
e 35 152
e 35 155
e 35 160
e 35 170
e 35 180
e 35 191
e 35 193
e 35 194
e 35 195
e 35 197
e 35 201
e 36 37
e 36 38
e 36 43
e 36 44
e 36 45
e 36 46
e 36 48
e 36 50
e 36 51
e 36 52
e 36 53
e 36 60
e 36 62
e 36 73
e 36 78
e 36 79
e 36 81
e 36 85
e 36 86
e 36 91
e 36 95
e 36 97
e 36 101
e 36 106
e 36 110
e 36 114
e 36 121
e 36 133
e 36 140
e 36 141
e 36 146
e 36 157
e 36 170
e 36 182
e 36 183
e 36 184
e 36 187
e 36 196
e 37 40
e 37 45
e 37 63
e 37 64
e 37 65
e 37 68
e 37 71
e 37 73
e 37 76
e 37 87
e 37 91
e 37 96
e 37 128
e 37 130
e 37 134
e 37 140
e 37 151
e 37 152
e 37 153
e 37 171
e 37 172
e 37 178
e 37 179
e 38 39
e 38 48
e 38 58
e 38 64
e 38 102
e 38 124
e 38 129
e 38 130
e 38 133
e 38 135
e 38 138
e 38 153
e 38 156
e 38 157
e 38 160
e 38 171
e 38 173
e 38 176
e 38 177
e 38 179
e 38 186
e 38 190
e 38 193
e 39 40
e 39 41
e 39 43
e 39 47
e 39 48
e 39 49
e 39 51
e 39 55
e 39 62
e 39 72
e 39 76
e 39 89
e 39 93
e 39 95
e 39 98
e 39 101
e 39 103
e 39 126
e 39 135
e 39 141
e 39 142
e 39 145
e 39 147
e 39 150
e 39 154
e 39 167
e 39 181
e 39 183
e 40 47
e 40 51
e 40 61
e 40 74
e 40 76
e 40 77
e 40 105
e 40 107
e 40 135
e 40 143
e 40 145
e 40 150
e 40 156
e 40 180
e 41 42
e 41 43
e 41 52
e 41 58
e 41 62
e 41 69
e 41 72
e 41 85
e 41 88
e 41 100
e 41 115
e 41 116
e 41 118
e 41 123
e 41 124
e 41 131
e 41 137
e 41 140
e 41 151
e 41 163
e 41 176
e 41 195
e 41 200
e 42 44
e 42 45
e 42 46
e 42 47
e 42 49
e 42 53
e 42 54
e 42 60
e 42 61
e 42 64
e 42 70
e 42 71
e 42 72
e 42 74
e 42 95
e 42 101
e 42 102
e 42 112
e 42 116
e 42 122
e 42 130
e 42 138
e 42 178
e 42 179
e 42 191
e 42 195
e 42 197
e 43 44
e 43 45
e 43 49
e 43 51
e 43 52
e 43 53
e 43 55
e 43 59
e 43 61
e 43 62
e 43 76
e 43 82
e 43 92
e 43 94
e 43 96
e 43 109
e 43 121
e 43 125
e 43 127
e 43 132
e 43 135
e 43 137
e 43 179
e 43 186
e 43 203
e 44 47
e 44 48
e 44 52
e 44 56
e 44 60
e 44 61
e 44 62
e 44 63
e 44 64
e 44 67
e 44 70
e 44 75
e 44 76
e 44 77
e 44 79
e 44 80
e 44 82
e 44 84
e 44 91
e 44 93
e 44 96
e 44 99
e 44 100
e 44 108
e 44 118
e 44 125
e 44 136
e 44 139
e 44 146
e 44 148
e 44 164
e 44 173
e 44 178
e 44 194
e 44 202
e 45 51
e 45 52
e 45 54
e 45 55
e 45 57
e 45 59
e 45 60
e 45 66
e 45 75
e 45 80
e 45 83
e 45 89
e 45 92
e 45 93
e 45 95
e 45 107
e 45 109
e 45 111
e 45 112
e 45 115
e 45 116
e 45 120
e 45 126
e 45 128
e 45 130
e 45 133
e 45 139
e 45 148
e 45 152
e 45 189
e 45 191
e 45 201
e 46 55
e 46 57
e 46 61
e 46 67
e 46 68
e 46 74
e 46 77
e 46 86
e 46 87
e 46 89
e 46 94
e 46 98
e 46 100
e 46 111
e 46 113
e 46 123
e 46 128
e 46 149
e 46 152
e 46 158
e 46 161
e 46 164
e 46 175
e 46 182
e 46 184
e 46 187
e 46 192
e 47 49
e 47 51
e 47 53
e 47 55
e 47 57
e 47 64
e 47 68
e 47 71
e 47 73
e 47 74
e 47 76
e 47 78
e 47 80
e 47 81
e 47 82
e 47 84
e 47 85
e 47 86
e 47 88
e 47 89
e 47 94
e 47 97
e 47 115
e 47 117
e 47 121
e 47 122
e 47 123
e 47 128
e 47 131
e 47 133
e 47 138
e 47 140
e 47 141
e 47 151
e 47 153
e 47 155
e 47 156
e 47 158
e 47 165
e 47 167
e 47 168
e 47 173
e 47 177
e 47 179
e 47 180
e 47 191
e 47 194
e 47 201
e 48 50
e 48 57
e 48 61
e 48 65
e 48 71
e 48 74
e 48 78
e 48 82
e 48 83
e 48 85
e 48 90
e 48 95
e 48 108
e 48 123
e 48 141
e 48 147
e 48 165
e 48 174
e 48 187
e 48 189
e 49 52
e 49 58
e 49 60
e 49 74
e 49 81
e 49 82
e 49 85
e 49 93
e 49 96
e 49 106
e 49 119
e 49 128
e 49 151
e 49 158
e 49 161
e 49 164
e 49 193
e 49 195
e 50 54
e 50 65
e 50 66
e 50 68
e 50 72
e 50 75
e 50 77
e 50 82
e 50 87
e 50 92
e 50 98
e 50 103
e 50 104
e 50 108
e 50 115
e 50 117
e 50 122
e 50 140
e 50 151
e 50 172
e 50 185
e 50 189
e 50 197
e 51 52
e 51 59
e 51 60
e 51 64
e 51 69
e 51 80
e 51 90
e 51 100
e 51 104
e 51 105
e 51 108
e 51 111
e 51 124
e 51 132
e 51 134
e 51 145
e 51 146
e 51 150
e 51 156
e 51 177
e 51 182
e 51 194
e 51 196
e 51 199
e 51 200
e 51 201
e 52 57
e 52 64
e 52 65
e 52 73
e 52 78
e 52 79
e 52 85
e 52 86
e 52 90
e 52 102
e 52 104
e 52 114
e 52 126
e 52 139
e 52 145
e 52 148
e 52 159
e 52 161
e 52 183
e 52 188
e 52 190
e 52 194
e 53 57
e 53 63
e 53 66
e 53 77
e 53 78
e 53 86
e 53 87
e 53 92
e 53 98
e 53 99
e 53 101
e 53 103
e 53 126
e 53 138
e 53 139
e 53 143
e 53 181
e 53 189
e 53 190
e 53 192
e 53 195
e 53 199
e 54 55
e 54 56
e 54 58
e 54 59
e 54 61
e 54 65
e 54 66
e 54 71
e 54 84
e 54 90
e 54 94
e 54 110
e 54 121
e 54 122
e 54 125
e 54 159
e 54 164
e 54 166
e 54 176
e 54 185
e 54 201
e 55 59
e 55 60
e 55 62
e 55 69
e 55 70
e 55 86
e 55 93
e 55 99
e 55 100
e 55 105
e 55 128
e 55 135
e 55 138
e 55 142
e 55 147
e 55 149
e 55 151
e 55 153
e 55 166
e 55 167
e 55 168
e 55 171
e 55 172
e 55 174
e 55 184
e 55 187
e 55 193
e 55 200
e 56 58
e 56 80
e 56 89
e 56 90
e 56 100
e 56 102
e 56 107
e 56 125
e 56 131
e 56 135
e 56 136
e 56 138
e 56 144
e 56 145
e 56 147
e 56 154
e 56 161
e 56 162
e 56 163
e 56 179
e 56 183
e 56 191
e 57 61
e 57 64
e 57 70
e 57 78
e 57 79
e 57 81
e 57 87
e 57 95
e 57 98
e 57 110
e 57 114
e 57 119
e 57 123
e 57 124
e 57 155
e 57 158
e 57 164
e 57 167
e 57 168
e 57 177
e 57 178
e 57 181
e 57 193
e 57 202
e 58 59
e 58 61
e 58 70
e 58 76
e 58 80
e 58 82
e 58 91
e 58 94
e 58 95
e 58 99
e 58 104
e 58 107
e 58 111
e 58 112
e 58 114
e 58 117
e 58 136
e 58 143
e 58 147
e 58 161
e 58 162
e 58 163
e 58 170
e 58 171
e 58 173
e 58 174
e 58 186
e 58 188
e 58 193
e 58 195
e 58 199
e 59 61
e 59 66
e 59 67
e 59 71
e 59 81
e 59 89
e 59 91
e 59 99
e 59 104
e 59 111
e 59 114
e 59 122
e 59 127
e 59 154
e 59 155
e 59 157
e 59 165
e 59 195
e 59 199
e 60 73
e 60 75
e 60 78
e 60 86
e 60 91
e 60 94
e 60 95
e 60 102
e 60 109
e 60 126
e 60 133
e 60 139
e 60 200
e 61 65
e 61 86
e 61 91
e 61 105
e 61 141
e 61 145
e 61 174
e 61 176
e 61 180
e 61 203
e 62 63
e 62 64
e 62 67
e 62 70
e 62 73
e 62 75
e 62 77
e 62 80
e 62 82
e 62 88
e 62 92
e 62 93
e 62 94
e 62 101
e 62 106
e 62 107
e 62 120
e 62 128
e 62 129
e 62 131
e 62 143
e 62 146
e 62 167
e 62 183
e 62 184
e 62 198
e 63 66
e 63 69
e 63 71
e 63 72
e 63 76
e 63 77
e 63 96
e 63 97
e 63 113
e 63 115
e 63 118
e 63 123
e 63 130
e 63 143
e 63 153
e 63 172
e 63 185
e 63 198
e 63 201
e 64 66
e 64 67
e 64 69
e 64 72
e 64 86
e 64 100
e 64 112
e 64 116
e 64 129
e 64 148
e 64 169
e 64 194
e 65 68
e 65 70
e 65 77
e 65 82
e 65 88
e 65 96
e 65 109
e 65 110
e 65 113
e 65 116
e 65 122
e 65 143
e 65 149
e 65 159
e 65 188
e 65 195
e 65 200
e 65 201
e 66 68
e 66 75
e 66 77
e 66 84
e 66 88
e 66 90
e 66 111
e 66 115
e 66 117
e 66 128
e 66 129
e 66 132
e 66 141
e 66 160
e 66 171
e 66 178
e 66 181
e 66 192
e 67 71
e 67 77
e 67 79
e 67 83
e 67 90
e 67 100
e 67 105
e 67 116
e 67 118
e 67 134
e 67 143
e 67 145
e 67 146
e 67 150
e 67 161
e 67 163
e 67 179
e 67 180
e 67 186
e 68 69
e 68 81
e 68 86
e 68 111
e 68 113
e 68 128
e 68 131
e 68 147
e 68 170
e 68 171
e 68 189
e 68 197
e 69 83
e 69 99
e 69 101
e 69 108
e 69 109
e 69 129
e 69 145
e 69 146
e 69 148
e 69 149
e 69 162
e 69 168
e 69 197
e 70 75
e 70 81
e 70 89
e 70 94
e 70 101
e 70 114
e 70 123
e 70 152
e 70 160
e 70 162
e 70 168
e 70 174
e 70 182
e 70 190
e 70 193
e 71 78
e 71 91
e 71 97
e 71 100
e 71 104
e 71 113
e 71 127
e 71 148
e 71 162
e 71 168
e 71 188
e 71 192
e 72 76
e 72 77
e 72 92
e 72 98
e 72 101
e 72 120
e 72 129
e 72 130
e 72 135
e 72 137
e 72 145
e 72 148
e 72 152
e 72 155
e 72 180
e 73 78
e 73 93
e 73 106
e 73 122
e 73 127
e 73 138
e 73 140
e 73 141
e 73 143
e 73 146
e 73 165
e 73 172
e 73 175
e 73 190
e 73 192
e 73 196
e 74 79
e 74 81
e 74 93
e 74 103
e 74 105
e 74 119
e 74 121
e 74 126
e 74 134
e 74 138
e 74 147
e 74 155
e 74 161
e 74 164
e 74 181
e 75 78
e 75 82
e 75 84
e 75 88
e 75 91
e 75 92
e 75 93
e 75 103
e 75 108
e 75 118
e 75 119
e 75 121
e 75 131
e 75 136
e 75 181
e 76 81
e 76 102
e 76 106
e 76 112
e 76 140
e 76 155
e 77 88
e 77 89
e 77 92
e 77 97
e 77 100
e 77 106
e 77 107
e 77 108
e 77 124
e 77 147
e 77 148
e 77 154
e 77 155
e 77 166
e 77 170
e 77 177
e 77 185
e 77 189
e 77 193
e 77 195
e 77 198
e 77 200
e 78 79
e 78 80
e 78 89
e 78 93
e 78 95
e 78 96
e 78 100
e 78 103
e 78 105
e 78 112
e 78 126
e 78 130
e 78 134
e 78 135
e 78 136
e 78 143
e 78 144
e 78 154
e 78 165
e 78 180
e 78 188
e 78 200
e 79 91
e 79 112
e 79 119
e 79 125
e 79 160
e 79 167
e 79 178
e 79 185
e 79 202
e 80 81
e 80 94
e 80 103
e 80 106
e 80 110
e 80 121
e 80 142
e 80 183
e 81 88
e 81 118
e 81 137
e 81 146
e 81 158
e 81 180
e 81 181
e 81 183
e 81 190
e 81 200
e 82 83
e 82 84
e 82 103
e 82 138
e 82 142
e 82 157
e 82 160
e 82 161
e 82 183
e 82 186
e 82 199
e 83 98
e 83 105
e 83 107
e 83 124
e 83 131
e 83 137
e 83 143
e 83 149
e 83 156
e 83 170
e 83 172
e 83 175
e 83 194
e 83 199
e 84 120
e 84 138
e 84 142
e 84 150
e 84 167
e 84 174
e 85 88
e 85 99
e 85 107
e 85 110
e 85 113
e 85 135
e 85 137
e 85 154
e 85 179
e 85 188
e 85 196
e 86 90
e 86 93
e 86 112
e 86 117
e 86 130
e 86 136
e 86 148
e 86 184
e 87 90
e 87 107
e 87 111
e 87 138
e 87 155
e 87 186
e 87 197
e 87 199
e 87 203
e 88 102
e 88 109
e 88 115
e 88 125
e 88 128
e 88 165
e 88 177
e 88 179
e 88 201
e 89 94
e 89 96
e 89 105
e 89 109
e 89 132
e 89 134
e 89 136
e 89 139
e 89 149
e 89 174
e 90 93
e 90 159
e 90 174
e 90 195
e 90 201
e 90 202
e 91 101
e 91 108
e 91 112
e 91 117
e 91 125
e 91 127
e 91 156
e 91 160
e 91 172
e 91 181
e 91 194
e 92 117
e 92 125
e 92 128
e 92 151
e 92 170
e 93 106
e 93 113
e 93 118
e 93 136
e 93 142
e 93 158
e 93 159
e 93 161
e 93 174
e 93 175
e 93 196
e 94 95
e 94 101
e 94 103
e 94 111
e 94 123
e 94 129
e 94 132
e 94 158
e 94 187
e 95 99
e 95 120
e 95 123
e 95 126
e 95 131
e 95 152
e 95 162
e 95 185
e 96 99
e 96 100
e 96 120
e 96 134
e 96 142
e 96 151
e 96 155
e 96 157
e 96 168
e 96 171
e 96 181
e 96 196
e 96 200
e 97 106
e 97 113
e 97 131
e 97 177
e 97 182
e 98 107
e 98 135
e 98 147
e 98 164
e 98 179
e 99 102
e 99 119
e 99 121
e 99 187
e 99 201
e 99 203
e 100 132
e 100 137
e 100 140
e 100 142
e 100 153
e 100 178
e 100 200
e 101 111
e 101 121
e 101 123
e 101 154
e 101 165
e 101 184
e 101 197
e 101 202
e 101 203
e 102 111
e 102 116
e 102 119
e 102 141
e 102 157
e 102 192
e 103 152
e 103 170
e 103 172
e 103 176
e 103 180
e 103 198
e 104 108
e 104 124
e 104 135
e 104 138
e 104 139
e 104 144
e 104 166
e 104 191
e 104 201
e 105 130
e 105 191
e 106 108
e 106 114
e 106 117
e 106 119
e 106 143
e 106 145
e 106 147
e 106 149
e 106 169
e 106 182
e 106 189
e 106 190
e 106 192
e 107 116
e 107 131
e 107 133
e 107 140
e 107 151
e 107 155
e 107 187
e 107 189
e 107 194
e 108 109
e 108 122
e 108 127
e 108 129
e 108 130
e 108 139
e 108 153
e 108 162
e 108 175
e 109 118
e 109 120
e 109 132
e 109 146
e 109 157
e 109 180
e 109 198
e 109 199
e 110 135
e 110 153
e 110 163
e 110 194
e 111 113
e 111 125
e 111 166
e 111 172
e 112 115
e 112 134
e 112 153
e 112 177
e 113 118
e 113 121
e 113 156
e 113 158
e 113 168
e 113 182
e 114 117
e 114 120
e 114 123
e 114 137
e 114 148
e 114 186
e 114 194
e 114 195
e 114 199
e 115 119
e 115 124
e 115 127
e 115 135
e 115 191
e 115 196
e 116 130
e 116 153
e 116 162
e 116 175
e 116 197
e 116 203
e 117 124
e 117 130
e 117 139
e 117 177
e 118 126
e 118 132
e 118 159
e 118 183
e 118 191
e 118 198
e 119 120
e 119 136
e 120 134
e 120 149
e 120 150
e 120 164
e 120 169
e 120 173
e 121 125
e 121 129
e 121 141
e 121 147
e 121 149
e 121 158
e 121 179
e 121 185
e 122 137
e 122 154
e 122 160
e 122 176
e 123 144
e 123 146
e 123 150
e 123 168
e 123 192
e 124 136
e 124 165
e 124 166
e 124 180
e 124 186
e 124 188
e 124 189
e 124 191
e 124 197
e 125 146
e 125 153
e 125 164
e 125 167
e 125 174
e 125 176
e 125 189
e 126 129
e 126 144
e 126 154
e 126 156
e 126 163
e 126 176
e 126 202
e 127 143
e 127 150
e 127 158
e 127 161
e 127 173
e 127 174
e 127 184
e 128 134
e 128 146
e 128 182
e 128 199
e 129 132
e 129 146
e 129 152
e 129 168
e 129 169
e 129 188
e 130 134
e 130 159
e 131 133
e 131 158
e 131 165
e 131 178
e 131 187
e 131 197
e 131 203
e 132 162
e 132 192
e 132 198
e 133 160
e 133 179
e 134 155
e 134 171
e 134 178
e 134 203
e 135 154
e 135 160
e 135 171
e 135 186
e 136 148
e 136 149
e 136 153
e 136 175
e 136 190
e 136 191
e 136 193
e 137 174
e 137 181
e 137 187
e 137 201
e 138 175
e 138 193
e 138 201
e 139 164
e 139 184
e 139 190
e 140 158
e 140 192
e 140 194
e 140 196
e 141 151
e 141 162
e 141 183
e 141 189
e 142 153
e 142 175
e 142 199
e 143 144
e 143 163
e 143 165
e 143 166
e 143 170
e 143 176
e 143 179
e 143 190
e 144 154
e 144 157
e 144 165
e 144 166
e 144 189
e 145 158
e 145 169
e 145 183
e 145 197
e 145 198
e 146 166
e 146 194
e 147 167
e 147 177
e 148 157
e 148 177
e 149 151
e 150 171
e 150 186
e 150 193
e 151 169
e 151 171
e 151 191
e 151 197
e 151 202
e 151 203
e 152 165
e 152 184
e 153 170
e 154 161
e 154 185
e 155 163
e 155 172
e 155 189
e 156 185
e 156 193
e 156 201
e 158 167
e 159 172
e 160 187
e 161 169
e 161 185
e 161 186
e 162 178
e 162 187
e 163 192
e 163 203
e 164 166
e 164 186
e 164 202
e 166 170
e 166 173
e 167 169
e 167 187
e 167 199
e 168 188
e 170 184
e 171 181
e 175 193
e 177 180
e 178 191
e 179 180
e 179 184
e 179 186
e 180 181
e 181 183
e 183 193
e 183 196
e 184 191
e 185 192
e 187 199
e 188 198
e 192 202
e 195 202
e 197 200
e 199 201
e 201 202
